(set-logic ALL)
(declare-fun seed0_T_1 () Int)
(declare-fun seed0_T_2 () Bool)
(declare-fun seed0_T_3 () Bool)
(declare-fun seed0_var_0xINPUT_200236 () String)
(assert (and (or (>= seed0_T_1 (str.len seed0_var_0xINPUT_200236)) (not (str.contains (str.++ seed0_var_0xINPUT_200236 "PUNj05") (str.++ seed0_var_0xINPUT_200236 "i1")))) (or (= seed0_T_2 (= seed0_T_1 0)) (> (+ seed0_T_1 (- 76)) (* seed0_T_1 seed0_T_1))) (or (= seed0_T_3 (not seed0_T_2)) (and (distinct (* seed0_T_1 seed0_T_1) (+ seed0_T_1 (- 946))) (<= (div seed0_T_1 seed0_T_1) (* seed0_T_1 seed0_T_1)))) (or seed0_T_3 (not (str.contains (str.++ seed0_var_0xINPUT_200236 "1TRW") (str.++ seed0_var_0xINPUT_200236 "VRnxOWIFBDgYobdMS5c2"))))))
(check-sat)
(exit)